(declare-fun temp2105_1 () (_ BitVec 64))
(declare-fun temp2105_2 () (_ BitVec 64))
(declare-fun var77740 () (_ BitVec 64))
(declare-fun k!0 () Bool)
(declare-fun ARGNAME_filter_NAMEEND_DIM () (_ BitVec 64))
(declare-fun ARGNAME_data_format_NAMEEND_STRFMT () (_ BitVec 64))
(declare-fun temp2105_3 () (_ BitVec 64))
(declare-fun ARGNAME_out_backprop_NAMEEND_DIM () (_ BitVec 64))
(declare-fun var77770 () (_ BitVec 64))
(declare-fun temp2105_4 () (_ BitVec 64))
(declare-fun temp2105_5 () (_ BitVec 64))
(declare-fun ARGNAME_filter_NAMEEND_DIMSIZE
             ()
             (Array (_ BitVec 64) (_ BitVec 64)))
(declare-fun temp2105_6 () (_ BitVec 64))
(declare-fun temp2105_7 () (_ BitVec 64))
(declare-fun temp2105_8 () (_ BitVec 64))
(declare-fun temp2105_9 () (_ BitVec 64))
(declare-fun temp2105_10 () (_ BitVec 64))
(declare-fun temp2105_11 () (_ BitVec 64))
(declare-fun temp2105_12 () (_ BitVec 64))
(declare-fun temp2105_13 () (_ BitVec 64))
(declare-fun temp2105_14 () (_ BitVec 64))
(declare-fun temp2105_15 () (_ BitVec 64))
(declare-fun temp2105_16 () (_ BitVec 64))
(declare-fun temp2105_17 () (_ BitVec 64))
(declare-fun temp2105_18 () (_ BitVec 64))
(declare-fun var77799 () (_ BitVec 64))
(declare-fun temp2105_19 () (_ BitVec 64))
(declare-fun ARGNAME_out_backprop_NAMEEND_DIMSIZE
             ()
             (Array (_ BitVec 64) (_ BitVec 64)))
(declare-fun temp2105_20 () (_ BitVec 64))
(declare-fun temp2105_21 () (_ BitVec 64))
(declare-fun temp2105_22 () (_ BitVec 64))
(declare-fun temp2105_23 () (_ BitVec 64))
(declare-fun temp2105_24 () (_ BitVec 64))
(declare-fun temp2105_25 () (_ BitVec 64))
(declare-fun temp2105_26 () (_ BitVec 64))
(declare-fun temp2105_27 () (_ BitVec 64))
(declare-fun temp2105_28 () (_ BitVec 64))
(declare-fun temp2105_29 () (_ BitVec 64))
(declare-fun temp2105_30 () (_ BitVec 64))
(declare-fun temp2105_31 () (_ BitVec 64))
(declare-fun temp2105_32 () (_ BitVec 64))
(declare-fun var77832 () (_ BitVec 64))
(declare-fun temp2105_33 () (_ BitVec 64))
(declare-fun temp2105_34 () (_ BitVec 64))
(declare-fun var77833 () (_ BitVec 64))
(declare-fun var77834 () (_ BitVec 64))
(declare-fun temp2105_35 () (_ BitVec 64))
(declare-fun temp2105_36 () (_ BitVec 64))
(declare-fun var275510 () (_ BitVec 64))
(declare-fun temp2105_37 () (_ BitVec 64))
(declare-fun var275528 () (_ BitVec 64))
(declare-fun temp2105_38 () (_ BitVec 64))
(declare-fun temp2105_40 () (_ BitVec 64))
(declare-fun temp2105_39 () (_ BitVec 64))
(declare-fun temp2105_42 () (_ BitVec 64))
(declare-fun temp2105_41 () (_ BitVec 64))
(declare-fun temp2105_43 () (_ BitVec 64))
(declare-fun var406582 () (_ BitVec 64))
(declare-fun temp2105_44 () (_ BitVec 64))
(declare-fun var406600 () (_ BitVec 64))
(declare-fun temp2105_45 () (_ BitVec 64))
(declare-fun temp2105_46 () (_ BitVec 64))
(declare-fun var537654 () (_ BitVec 64))
(declare-fun temp2105_47 () (_ BitVec 64))
(declare-fun var537672 () (_ BitVec 64))
(declare-fun temp2105_48 () (_ BitVec 64))
(declare-fun temp2105_50 () (_ BitVec 64))
(declare-fun temp2105_49 () (_ BitVec 64))
(declare-fun temp2105_52 () (_ BitVec 64))
(declare-fun temp2105_51 () (_ BitVec 64))
(declare-fun temp2105_54 () (_ BitVec 64))
(declare-fun temp2105_53 () (_ BitVec 64))
(declare-fun temp2105_56 () (_ BitVec 64))
(declare-fun temp2105_55 () (_ BitVec 64))
(declare-fun temp2105_57 () (_ BitVec 64))
(declare-fun var795723 () (_ BitVec 64))
(declare-fun var795702 () (_ BitVec 64))
(declare-fun var730134 () (_ BitVec 64))
(declare-fun temp2105_58 () (_ BitVec 64))
(declare-fun temp2105_59 () (_ BitVec 64))
(declare-fun var861259 () (_ BitVec 64))
(declare-fun var861238 () (_ BitVec 64))
(declare-fun var730144 () (_ BitVec 64))
(declare-fun temp2105_60 () (_ BitVec 64))
(declare-fun temp2105_61 () (_ BitVec 64))
(declare-fun var926795 () (_ BitVec 64))
(declare-fun var926774 () (_ BitVec 64))
(declare-fun var730147 () (_ BitVec 64))
(declare-fun temp2105_62 () (_ BitVec 64))
(declare-fun temp2105_64 () (_ BitVec 64))
(declare-fun temp2105_63 () (_ BitVec 64))
(declare-fun temp2105_66 () (_ BitVec 64))
(declare-fun temp2105_65 () (_ BitVec 64))
(declare-fun temp2105_68 () (_ BitVec 64))
(declare-fun temp2105_67 () (_ BitVec 64))
(declare-fun temp2105_69 () (_ BitVec 64))
(declare-fun var1057842 () (_ BitVec 64))
(declare-fun temp2105_70 () (_ BitVec 64))
(declare-fun var1057843 () (_ BitVec 64))
(declare-fun var1057844 () (_ BitVec 64))
(declare-fun var1057840 () (_ BitVec 64))
(declare-fun var664540 () (_ BitVec 64))
(declare-fun temp2105_71 () (_ BitVec 64))
(declare-fun var1123378 () (_ BitVec 64))
(declare-fun temp2105_72 () (_ BitVec 64))
(declare-fun var1123379 () (_ BitVec 64))
(declare-fun var1123380 () (_ BitVec 64))
(declare-fun var1123376 () (_ BitVec 64))
(declare-fun var664547 () (_ BitVec 64))
(declare-fun temp2105_73 () (_ BitVec 64))
(declare-fun var1188914 () (_ BitVec 64))
(declare-fun temp2105_74 () (_ BitVec 64))
(declare-fun var1188915 () (_ BitVec 64))
(declare-fun var1188916 () (_ BitVec 64))
(declare-fun var1188912 () (_ BitVec 64))
(declare-fun var664552 () (_ BitVec 64))
(declare-fun var78095 () (_ BitVec 64))
(declare-fun temp2105_75 () (_ BitVec 64))
(declare-fun temp2105_76 () (_ BitVec 64))
(declare-fun var78184 () (_ BitVec 64))
(declare-fun temp2105_78 () (_ BitVec 64))
(declare-fun temp2105_77 () (_ BitVec 64))
(declare-fun temp2105_80 () (_ BitVec 64))
(declare-fun temp2105_79 () (_ BitVec 64))
(assert (or (= ARGNAME_data_format_NAMEEND_STRFMT #x0000000000000000)
    (= ARGNAME_data_format_NAMEEND_STRFMT #x0000000000000001)
    (= ARGNAME_data_format_NAMEEND_STRFMT #x0000000000000002)
    (= ARGNAME_data_format_NAMEEND_STRFMT #x0000000000000003)
    (= ARGNAME_data_format_NAMEEND_STRFMT #x0000000000000004)
    (= ARGNAME_data_format_NAMEEND_STRFMT #x0000000000000005)))
(assert (= temp2105_1 #x0000000000000005))
(assert (= var77740
   (ite (= ARGNAME_filter_NAMEEND_DIM temp2105_1)
        #x0000000000000001
        #x0000000000000000)))
(assert (= temp2105_2 #x0000000000000001))
(assert (= var77740 temp2105_2))
(assert (= temp2105_3 #x0000000000000005))
(assert (= var77770
   (ite (= ARGNAME_out_backprop_NAMEEND_DIM temp2105_3)
        #x0000000000000001
        #x0000000000000000)))
(assert (= temp2105_4 #x0000000000000001))
(assert (= var77770 temp2105_4))
(assert (= temp2105_5 #x0000000000000000))
(assert (= temp2105_6 (select ARGNAME_filter_NAMEEND_DIMSIZE temp2105_5)))
(assert (= temp2105_7 #x0000000000000001))
(assert (= temp2105_8 (select ARGNAME_filter_NAMEEND_DIMSIZE temp2105_7)))
(assert (= temp2105_9 #x0000000000000002))
(assert (= temp2105_10 (select ARGNAME_filter_NAMEEND_DIMSIZE temp2105_9)))
(assert (= temp2105_11 #x0000000000000003))
(assert (= temp2105_12 (select ARGNAME_filter_NAMEEND_DIMSIZE temp2105_11)))
(assert (= temp2105_13 #x0000000000000004))
(assert (= temp2105_14 (select ARGNAME_filter_NAMEEND_DIMSIZE temp2105_13)))
(assert (= temp2105_15 #x0000000000000005))
(assert (= temp2105_16 (select ARGNAME_filter_NAMEEND_DIMSIZE temp2105_15)))
(assert (= temp2105_17 #x0000000000000003))
(assert (= temp2105_18 (select ARGNAME_filter_NAMEEND_DIMSIZE temp2105_17)))
(assert (= var77799 temp2105_18))
(assert (= temp2105_19 #x0000000000000000))
(assert (= temp2105_20 (select ARGNAME_out_backprop_NAMEEND_DIMSIZE temp2105_19)))
(assert (= temp2105_21 #x0000000000000001))
(assert (= temp2105_22 (select ARGNAME_out_backprop_NAMEEND_DIMSIZE temp2105_21)))
(assert (= temp2105_23 #x0000000000000002))
(assert (= temp2105_24 (select ARGNAME_out_backprop_NAMEEND_DIMSIZE temp2105_23)))
(assert (= temp2105_25 #x0000000000000003))
(assert (= temp2105_26 (select ARGNAME_out_backprop_NAMEEND_DIMSIZE temp2105_25)))
(assert (= temp2105_27 #x0000000000000004))
(assert (= temp2105_28 (select ARGNAME_out_backprop_NAMEEND_DIMSIZE temp2105_27)))
(assert (= temp2105_29 #x0000000000000005))
(assert (= temp2105_30 (select ARGNAME_out_backprop_NAMEEND_DIMSIZE temp2105_29)))
(assert (= temp2105_31 #x0000000000000004))
(assert (= temp2105_32 (select ARGNAME_out_backprop_NAMEEND_DIMSIZE temp2105_31)))
(assert (= var77832 temp2105_32))
(assert (= temp2105_33 #x0000000000000004))
(assert (= temp2105_34 (select ARGNAME_filter_NAMEEND_DIMSIZE temp2105_33)))
(assert (= var77833 temp2105_34))
(assert (= var77834 (ite (= var77832 var77833) #x0000000000000001 #x0000000000000000)))
(assert (= temp2105_35 #x0000000000000001))
(assert (= var77834 temp2105_35))
(assert (= temp2105_36 #x0000000000000001))
(assert (= var275510 temp2105_36))
(assert (= temp2105_37 #x0000000000000001))
(assert (= var275528
   (ite (bvslt var275510 temp2105_37) #x0000000000000001 #x0000000000000000)))
(assert (= temp2105_38 #x0000000000000000))
(assert (= var275528 temp2105_38))
(assert (= temp2105_40 #x0000000000000000))
(assert (= temp2105_39 temp2105_40))
(assert (= temp2105_42 #x0000000000000000))
(assert (= temp2105_41 temp2105_42))
(assert (= temp2105_43 #x0000000000000001))
(assert (= var406582 temp2105_43))
(assert (= temp2105_44 #x0000000000000001))
(assert (= var406600
   (ite (bvslt var406582 temp2105_44) #x0000000000000001 #x0000000000000000)))
(assert (= temp2105_45 #x0000000000000000))
(assert (= var406600 temp2105_45))
(assert (= temp2105_46 #x0000000000000001))
(assert (= var537654 temp2105_46))
(assert (= temp2105_47 #x0000000000000001))
(assert (= var537672
   (ite (bvslt var537654 temp2105_47) #x0000000000000001 #x0000000000000000)))
(assert (= temp2105_48 #x0000000000000000))
(assert (= var537672 temp2105_48))
(assert (= temp2105_50 #x0000000000000000))
(assert (= temp2105_49 temp2105_50))
(assert (= temp2105_52 #x00000000000000ff))
(assert (= temp2105_51 temp2105_52))
(assert (= temp2105_54 #x00000000000000ff))
(assert (= temp2105_53 temp2105_54))
(assert (= temp2105_56 #x00000000000000ff))
(assert (= temp2105_55 temp2105_56))
(assert (= temp2105_57 #x0000000000000000))
(assert (= var795723 temp2105_57))
(assert (= var795702 var795723))
(assert (= var730134 var795702))
(assert (= temp2105_58 #x0000000000000000))
(assert (= var730134 temp2105_58))
(assert (= temp2105_59 #x0000000000000000))
(assert (= var861259 temp2105_59))
(assert (= var861238 var861259))
(assert (= var730144 var861238))
(assert (= temp2105_60 #x0000000000000000))
(assert (= var730144 temp2105_60))
(assert (= temp2105_61 #x0000000000000000))
(assert (= var926795 temp2105_61))
(assert (= var926774 var926795))
(assert (= var730147 var926774))
(assert (= temp2105_62 #x0000000000000000))
(assert (= var730147 temp2105_62))
(assert (= temp2105_64 #x0000000000000000))
(assert (= temp2105_63 temp2105_64))
(assert (= temp2105_66 #x0000000000000000))
(assert (= temp2105_65 temp2105_66))
(assert (= temp2105_68 #x0000000000000000))
(assert (= temp2105_67 temp2105_68))
(assert (= temp2105_69 #x0000000000008000))
(assert (= var1057842 temp2105_69))
(assert (= temp2105_70 #x0000000000000001))
(assert (= var1057843
   (ite (bvslt temp2105_67 temp2105_70) #x0000000000000001 #x0000000000000000)))
(assert (= var1057844 (ite (= var1057843 #x0000000000000001) var1057842 temp2105_67)))
(assert (= var1057840 var1057844))
(assert (= var664540 var1057840))
(assert (= temp2105_71 #x0000000000040000))
(assert (= var1123378 temp2105_71))
(assert (= temp2105_72 #x0000000000000001))
(assert (= var1123379
   (ite (bvslt temp2105_65 temp2105_72) #x0000000000000001 #x0000000000000000)))
(assert (= var1123380 (ite (= var1123379 #x0000000000000001) var1123378 temp2105_65)))
(assert (= var1123376 var1123380))
(assert (= var664547 var1123376))
(assert (= temp2105_73 #x0000000000200000))
(assert (= var1188914 temp2105_73))
(assert (= temp2105_74 #x0000000000000001))
(assert (= var1188915
   (ite (bvslt temp2105_63 temp2105_74) #x0000000000000001 #x0000000000000000)))
(assert (= var1188916 (ite (= var1188915 #x0000000000000001) var1188914 temp2105_63)))
(assert (= var1188912 var1188916))
(assert (= var664552 var1188912))
(assert (= var78095 var664552))
(assert (= temp2105_75 #x0000000000000003))
(assert (= temp2105_76 #x0000000000000001))
(assert (= var78184 temp2105_76))
(assert (= temp2105_78 #x0000000000000001))
(assert (= temp2105_77 temp2105_78))
(assert (= temp2105_80 #x0000000000000001))
(assert (= temp2105_79 temp2105_80))
(model-add temp2105_1 () (_ BitVec 64) #x0000000000000005)
(model-add temp2105_2 () (_ BitVec 64) #x0000000000000001)
(model-add var77740 () (_ BitVec 64) #x0000000000000001)
(model-del k!0)
(model-add ARGNAME_filter_NAMEEND_DIM
           ()
           (_ BitVec 64)
           (ite k!0 #x0000000000000005 (bvnot #x0000000000000005)))


